2712 1065
633 502
2388 2054
30 1893
2863 862
2025 828
114 1388
1501 1474
1000 445
2154 1288
2108 2337
3007 1680
272 2284
1100 72
1070 1311
2646 1092
1285 909
977 1784
2641 2702
2951 1865
2027 587
1589 867
919 1859
2768 1815
1229 151
247 354
1965 475
1521 1826
1176 1794
576 2378
2752 676
2092 2633
1409 2939
2674 2416
1183 1766
2997 2715
303 2391
1170 811
2072 2690
1910 2573
971 135
360 1861
1023 890
1796 2390
1294 2880
2734 318
1895 1412
2002 491
3042 2824
459 1986
